c [MSE2022] -- begin -- [MSE2022]
0.00/0.00	c
0.00/0.00	c NuWLS based on TT-Open-WBO-Inc:	 an Anytime MaxSAT Solver --- based on Glucose4.1 (core version)
0.00/0.00	c Version:	 MaxSAT Evaluation 2021
0.00/0.00	c Author of NuWLS:	 Yi Chu, Xiang He
0.00/0.00	c Author of TT-Open-WBO-Inc:	 Alexander Nadel
0.00/0.00	c Authors of the baseline solver Open-WBO-Inc:	 Saurabh Joshi, Prateek Kumar, Ruben Martins, Sukrut Rao
0.00/0.00	c WARNING: for repeatability, setting FPU to use double precision
0.00/0.00	c |                                                                                                       |
0.00/0.00	c ========================================[ Problem Statistics ]===========================================
0.00/0.00	c |                                                                                                       |
0.00/0.00	c |  Problem Format:             MaxSAT                                                                   |
0.00/0.00	c |  Problem Type:           Unweighted                                                                   |
0.00/0.00	c |  Number of variables:          1936                                                                   |
0.00/0.01	c |  Number of hard clauses:          0                                                                   |
0.00/0.01	c |  Number of soft clauses:       5427                                                                   |
0.00/0.01	c |  Number of cardinality:           0                                                                   |
0.00/0.01	c |  Number of PB :                   0                                                                   |
0.00/0.01	c |  Parse time:                   0.00 s                                                                 |
0.00/0.01	c |                                                                                                       |
0.00/0.01	c | best-alg-selector overriden target_vars_bump_val to 0, since it hadn't been set by the user |
0.00/0.01	c | best-alg-selector overriden ms_model_per_sec_thr to 2, since it hadn't been set by the user |
0.00/0.01	c | best-alg-selector overriden ms_mutation_classes to 0, since it hadn't been set by the user |
0.00/0.01	c | best-alg-selector overriden ms_chrono to 100, since it hadn't been set by the user |
0.00/0.01	c ==========================================[ Solver Settings ]============================================
0.00/0.01	c |                                                                                                       |
0.00/0.01	c |  Algorithm:                     OBV                                                                   |
0.00/0.01	c |  Cardinality Encoding:       Modulo Totalizer                                                         |
0.00/0.01	c |  Limit number conflicts:       1000                                                                   |
0.00/0.01	c |  Limit number iterations: 2147483647                                                                   |
0.00/0.01	c |  Global limit number conflicts:   F                                                                   |
0.00/0.01	c |                                                                                                       |
0.00/0.01	c Mrs. Beaver incomplete stage
0.00/0.01	o 540
0.00/0.01	c total_lit_count 12790
0.00/0.01	c before build neighbor
0.00/0.01	c build instime is 0
0.00/0.01	c using neighbor 
0.00/0.01	c build NuWLS instance done!
0.00/0.01	c changing to NuWLS solver!!!
0.00/0.01	c problem weighted = 0
0.00/0.01	o 540
0.00/0.01	o 536
0.00/0.01	o 533
0.00/0.01	o 530
0.00/0.01	o 527
0.00/0.01	o 524
0.00/0.01	o 521
0.00/0.01	o 518
0.00/0.01	o 516
0.00/0.01	o 513
0.00/0.01	o 510
0.00/0.01	o 507
0.00/0.01	o 505
0.00/0.01	o 503
0.00/0.01	o 501
0.00/0.01	o 499
0.00/0.01	o 497
0.00/0.01	o 495
0.00/0.01	o 493
0.00/0.01	o 491
0.00/0.01	o 489
0.00/0.01	o 487
0.00/0.01	o 486
0.00/0.01	o 485
0.00/0.01	o 484
0.00/0.01	o 483
0.00/0.01	o 482
0.00/0.01	o 481
0.00/0.01	o 480
0.00/0.01	o 479
0.00/0.01	o 478
0.00/0.01	o 477
0.00/0.01	o 476
0.00/0.01	o 475
0.00/0.01	o 474
0.00/0.01	o 473
0.00/0.01	o 472
0.00/0.01	o 470
0.00/0.01	o 469
0.00/0.01	o 468
0.00/0.01	o 467
0.00/0.01	o 466
0.00/0.01	o 465
0.00/0.01	o 464
0.00/0.01	o 462
0.00/0.01	o 461
0.00/0.01	o 460
0.00/0.01	o 459
0.00/0.01	o 458
0.00/0.01	o 457
0.00/0.01	o 456
0.00/0.01	o 455
0.00/0.01	o 454
0.00/0.01	o 453
0.00/0.01	o 452
0.00/0.01	o 451
0.00/0.01	o 450
0.00/0.01	o 449
0.00/0.01	o 448
0.00/0.01	o 447
0.00/0.01	o 446
0.00/0.01	o 445
0.00/0.01	o 443
0.00/0.01	o 442
0.00/0.01	o 441
0.00/0.01	o 440
0.00/0.01	o 439
0.00/0.01	o 438
0.00/0.01	o 437
0.00/0.01	o 436
0.00/0.01	o 435
0.00/0.01	o 434
0.00/0.01	o 433
0.00/0.01	o 432
0.00/0.01	o 431
0.00/0.01	o 430
0.00/0.01	o 429
0.00/0.01	o 428
0.00/0.01	o 427
0.00/0.01	o 426
0.00/0.01	o 425
0.00/0.01	o 424
0.00/0.01	o 423
0.00/0.01	o 422
0.00/0.01	o 421
0.00/0.01	o 420
0.00/0.01	o 419
0.00/0.01	o 418
0.00/0.01	o 417
0.00/0.01	o 416
0.00/0.01	o 415
0.00/0.01	o 414
0.00/0.01	o 413
0.00/0.01	o 412
0.00/0.01	o 411
0.00/0.01	o 410
0.00/0.01	o 409
0.00/0.01	o 408
0.00/0.01	o 407
0.00/0.01	o 406
0.00/0.01	o 405
0.00/0.01	o 404
0.00/0.02	o 403
0.00/0.02	o 402
0.00/0.02	o 401
0.00/0.02	o 400
0.00/0.02	o 399
0.00/0.02	o 398
0.00/0.02	o 397
0.00/0.02	o 396
0.00/0.02	o 395
0.00/0.02	o 394
0.00/0.02	o 393
0.00/0.02	o 392
0.00/0.02	o 391
0.00/0.02	o 390
0.00/0.02	o 389
0.00/0.02	o 388
0.00/0.02	o 387
0.00/0.02	o 386
0.00/0.02	o 385
0.00/0.02	o 384
0.00/0.02	o 383
0.00/0.02	o 382
0.00/0.02	o 381
0.00/0.02	o 380
0.00/0.02	o 379
0.00/0.02	o 378
0.00/0.02	o 377
0.00/0.02	o 376
0.00/0.02	o 375
0.00/0.02	o 374
0.00/0.02	o 373
0.00/0.02	o 372
0.00/0.02	o 371
0.00/0.02	o 370
0.00/0.02	o 369
0.00/0.02	o 368
0.00/0.02	o 367
0.00/0.02	o 366
0.00/0.02	o 365
0.00/0.02	o 364
0.00/0.02	o 363
0.00/0.02	o 362
0.00/0.02	o 361
0.00/0.02	o 360
0.00/0.02	o 359
0.00/0.02	o 358
0.00/0.02	o 357
0.00/0.02	o 356
0.00/0.02	o 355
0.00/0.02	o 354
0.00/0.02	o 353
0.00/0.02	o 352
0.00/0.02	o 351
0.00/0.02	o 350
0.00/0.02	o 349
0.00/0.02	o 348
0.00/0.02	o 347
0.00/0.02	o 346
0.00/0.02	o 345
0.00/0.02	o 344
0.00/0.02	o 343
0.00/0.02	o 342
0.00/0.02	o 341
0.00/0.02	o 340
0.00/0.02	o 339
0.00/0.02	o 338
0.00/0.02	o 337
0.00/0.02	o 336
0.00/0.02	o 335
0.00/0.02	o 334
0.00/0.02	o 333
0.00/0.02	o 332
0.00/0.02	o 331
0.00/0.02	o 330
0.00/0.02	o 329
0.00/0.02	o 328
0.00/0.02	o 327
0.00/0.02	o 326
0.00/0.02	o 325
0.00/0.02	o 324
0.00/0.02	o 323
0.00/0.02	o 322
0.00/0.02	o 321
0.00/0.02	o 320
0.00/0.02	o 319
0.00/0.02	o 318
0.00/0.02	o 317
0.00/0.02	o 316
0.00/0.02	o 315
0.00/0.02	o 314
0.00/0.02	o 313
0.00/0.02	o 312
0.00/0.02	o 311
0.00/0.02	o 310
0.00/0.02	o 309
0.00/0.02	o 308
0.00/0.02	o 307
0.00/0.02	o 306
0.00/0.02	o 305
0.00/0.02	o 304
0.00/0.02	o 303
0.00/0.02	o 302
0.00/0.02	o 301
0.00/0.02	o 300
0.00/0.02	o 299
0.00/0.02	o 298
0.00/0.03	o 297
0.00/0.03	o 296
0.00/0.03	o 295
0.00/0.03	o 294
0.00/0.03	o 293
0.00/0.03	o 292
0.00/0.03	o 291
0.00/0.03	o 290
0.03/0.04	s SATISFIABLE
0.03/0.04	o 290 
0.03/0.04	v 1111111001011000000010010011110011001110011100000101100101001001011111110110011110011001001101001000101011110111111001101000100101100111001000110001100011111000011001110110001011011110000101110000101011011000110011101011001110001100101000010111000110011101110101111011101000111010011001010100100110001111101101000000001000110100011111011010000010100111010100100111010010000111101000111000000010110100111001011001101100111010010001000000010011010110110100101110101000001000010010100011110010111100110001001011001101000010110111001001110000001110010011101111101011010011011110001100010101000000100001001000011001011011011111001000101110101001111001101000001110001010111111110111000111110001100110010110000101111011111000111101100001010001001110000110101000011000101101111011101110010100101000101111000100011100110011100101000111111000110000010000110101000000100011100111110110101101001010010100011000000010011000111010000110000000011001100110000111000101100100000101100000111110111010000111100100011110001110011110110100010010101000011001011010111100010000101001101000011101100011001000110101101000100100101101101111110110000100000000000110111001010101110110101011001100000010101000100110000000011001111010000100010010000000101101111010100001011011110000100000100010101101111011011101010110000101010010101011100001101110101010110111001000100100000001100101100100011011001100010111010111000101100110011010000000100011000011101101100000010100011101011011010100100100101100010100001100101100101010001110000111011001001110111010000110001111110100110011100100011000111111100001000001110011011001110100001101110110101111000110110101100110111011001000101001000011101111001110100000110101001110011111111100111011000001100001100100110100001101100111001100110100000100000010000011010111000101010001100110111000010110111101110100111100011110011001101110111010101001000010011001101001101110101100011110000001110111010101011100001101100010011101010101
c [MSE2022] -- end -- [MSE2022]
